(declare-const |j'| Int)
(declare-const k Int)
(declare-const j Int)
(declare-const term_to_project_onto0_integralized Int)
(declare-const term_to_project_onto_integralized Int)
(declare-const |k'| Int)
(assert (and (<= (- k) 0) (<= (+ (- j) 1) 0) (<= (+ (- k) 1) 0)
               (= (+ |j'| (- j) 1) 0) (= (+ |k'| (- k) 1) 0)
               (= (+ term_to_project_onto0_integralized (- (+ |k'| (- k)))) 0)
               (= (+ term_to_project_onto_integralized (- (+ |j'| (- j)))) 0)))
(check-sat)